certificates/rado_a5_c143_N28.cnf
c Rad2 upper bound instance: x1 + 5*x2 - x3 = 143, interval [1,28]
p cnf 28 150
1 4 28 0
-1 -4 -28 0
2 5 28 0
-2 -5 -28 0
3 6 28 0
-3 -6 -28 0
4 7 28 0
-4 -7 -28 0
5 8 28 0
-5 -8 -28 0
1 9 27 0
-1 -9 -27 0
6 9 28 0
-6 -9 -28 0
2 10 27 0
-2 -10 -27 0
7 10 28 0
-7 -10 -28 0
3 11 27 0
-3 -11 -27 0
8 11 28 0
-8 -11 -28 0
4 12 27 0
-4 -12 -27 0
9 12 28 0
-9 -12 -28 0
5 13 27 0
-5 -13 -27 0
10 13 28 0
-10 -13 -28 0
1 14 26 0
-1 -14 -26 0
6 14 27 0
-6 -14 -27 0
11 14 28 0
-11 -14 -28 0
2 15 26 0
-2 -15 -26 0
7 15 27 0
-7 -15 -27 0
12 15 28 0
-12 -15 -28 0
3 16 26 0
-3 -16 -26 0
8 16 27 0
-8 -16 -27 0
13 16 28 0
-13 -16 -28 0
4 17 26 0
-4 -17 -26 0
9 17 27 0
-9 -17 -27 0
14 17 28 0
-14 -17 -28 0
5 18 26 0
-5 -18 -26 0
10 18 27 0
-10 -18 -27 0
15 18 28 0
-15 -18 -28 0
1 19 25 0
-1 -19 -25 0
6 19 26 0
-6 -19 -26 0
11 19 27 0
-11 -19 -27 0
16 19 28 0
-16 -19 -28 0
2 20 25 0
-2 -20 -25 0
7 20 26 0
-7 -20 -26 0
12 20 27 0
-12 -20 -27 0
17 20 28 0
-17 -20 -28 0
3 21 25 0
-3 -21 -25 0
8 21 26 0
-8 -21 -26 0
13 21 27 0
-13 -21 -27 0
18 21 28 0
-18 -21 -28 0
4 22 25 0
-4 -22 -25 0
9 22 26 0
-9 -22 -26 0
14 22 27 0
-14 -22 -27 0
19 22 28 0
-19 -22 -28 0
5 23 25 0
-5 -23 -25 0
10 23 26 0
-10 -23 -26 0
15 23 27 0
-15 -23 -27 0
20 23 28 0
-20 -23 -28 0
1 24 0
-1 -24 0
6 24 25 0
-6 -24 -25 0
11 24 26 0
-11 -24 -26 0
16 24 27 0
-16 -24 -27 0
21 24 28 0
-21 -24 -28 0
2 24 25 0
-2 -24 -25 0
7 25 0
-7 -25 0
12 25 26 0
-12 -25 -26 0
17 25 27 0
-17 -25 -27 0
22 25 28 0
-22 -25 -28 0
3 24 26 0
-3 -24 -26 0
8 25 26 0
-8 -25 -26 0
13 26 0
-13 -26 0
18 26 27 0
-18 -26 -27 0
23 26 28 0
-23 -26 -28 0
4 24 27 0
-4 -24 -27 0
9 25 27 0
-9 -25 -27 0
14 26 27 0
-14 -26 -27 0
19 27 0
-19 -27 0
24 27 28 0
-24 -27 -28 0
5 24 28 0
-5 -24 -28 0
10 25 28 0
-10 -25 -28 0
15 26 28 0
-15 -26 -28 0
20 27 28 0
-20 -27 -28 0
25 28 0
-25 -28 0
