certificates/rado_a5_c143_N28.drat
-28 0
25 0
-7 0
4 0
10 0
-22 0
19 0
-1 0
-27 0
24 0
20 0
9 0
15 0
14 0
-6 0
-2 0
3 0
5 0
-26 0
-21 0
-23 0
13 0
18 0
0
